certificates/rado_a13_c68_N33.cnf
c Rad2 upper bound instance: x1 + 13*x2 - x3 = 68, interval [1,33]
p cnf 33 168
1 6 11 0
-1 -6 -11 0
1 7 24 0
-1 -7 -24 0
2 6 12 0
-2 -6 -12 0
2 7 25 0
-2 -7 -25 0
3 6 13 0
-3 -6 -13 0
3 7 26 0
-3 -7 -26 0
1 4 5 0
-1 -4 -5 0
4 6 14 0
-4 -6 -14 0
4 7 27 0
-4 -7 -27 0
2 5 0
-2 -5 0
5 6 15 0
-5 -6 -15 0
5 7 28 0
-5 -7 -28 0
3 5 6 0
-3 -5 -6 0
6 16 0
-6 -16 0
6 7 29 0
-6 -7 -29 0
4 5 7 0
-4 -5 -7 0
6 7 17 0
-6 -7 -17 0
7 30 0
-7 -30 0
5 8 0
-5 -8 0
6 8 18 0
-6 -8 -18 0
7 8 31 0
-7 -8 -31 0
5 6 9 0
-5 -6 -9 0
6 9 19 0
-6 -9 -19 0
7 9 32 0
-7 -9 -32 0
5 7 10 0
-5 -7 -10 0
6 10 20 0
-6 -10 -20 0
7 10 33 0
-7 -10 -33 0
5 8 11 0
-5 -8 -11 0
6 11 21 0
-6 -11 -21 0
5 9 12 0
-5 -9 -12 0
6 12 22 0
-6 -12 -22 0
5 10 13 0
-5 -10 -13 0
6 13 23 0
-6 -13 -23 0
5 11 14 0
-5 -11 -14 0
6 14 24 0
-6 -14 -24 0
5 12 15 0
-5 -12 -15 0
6 15 25 0
-6 -15 -25 0
5 13 16 0
-5 -13 -16 0
6 16 26 0
-6 -16 -26 0
1 4 17 0
-1 -4 -17 0
5 14 17 0
-5 -14 -17 0
6 17 27 0
-6 -17 -27 0
2 4 18 0
-2 -4 -18 0
5 15 18 0
-5 -15 -18 0
6 18 28 0
-6 -18 -28 0
3 4 19 0
-3 -4 -19 0
5 16 19 0
-5 -16 -19 0
6 19 29 0
-6 -19 -29 0
4 20 0
-4 -20 0
5 17 20 0
-5 -17 -20 0
6 20 30 0
-6 -20 -30 0
4 5 21 0
-4 -5 -21 0
5 18 21 0
-5 -18 -21 0
6 21 31 0
-6 -21 -31 0
4 6 22 0
-4 -6 -22 0
5 19 22 0
-5 -19 -22 0
6 22 32 0
-6 -22 -32 0
4 7 23 0
-4 -7 -23 0
5 20 23 0
-5 -20 -23 0
6 23 33 0
-6 -23 -33 0
4 8 24 0
-4 -8 -24 0
5 21 24 0
-5 -21 -24 0
4 9 25 0
-4 -9 -25 0
5 22 25 0
-5 -22 -25 0
4 10 26 0
-4 -10 -26 0
5 23 26 0
-5 -23 -26 0
4 11 27 0
-4 -11 -27 0
5 24 27 0
-5 -24 -27 0
4 12 28 0
-4 -12 -28 0
5 25 28 0
-5 -25 -28 0
4 13 29 0
-4 -13 -29 0
5 26 29 0
-5 -26 -29 0
1 3 30 0
-1 -3 -30 0
4 14 30 0
-4 -14 -30 0
5 27 30 0
-5 -27 -30 0
2 3 31 0
-2 -3 -31 0
4 15 31 0
-4 -15 -31 0
5 28 31 0
-5 -28 -31 0
3 32 0
-3 -32 0
4 16 32 0
-4 -16 -32 0
5 29 32 0
-5 -29 -32 0
3 4 33 0
-3 -4 -33 0
4 17 33 0
-4 -17 -33 0
5 30 33 0
-5 -30 -33 0
