certificates/rado_a13_c68_N33.drat
-30 3 -33 0
8 24 -1 0
-32 -33 0
-7 -33 0
-3 -33 0
d -4 -3 -33 0
-33 0
4 7 0
-3 -30 0
-30 0
7 0
5 0
-2 0
-8 0
-28 0
-10 0
-4 0
18 0
24 0
12 0
26 0
20 0
3 0
17 0
14 0
-21 0
-15 0
-1 0
-27 0
-9 0
-29 0
0
